projected/problems_b25_r0_d7_m100_s666/_DIMACS/b25_d7_r0_s666_030.cnf
p cnf 291 522 25
c p show 1 2 3 4 5 6 7 8 9 10 11 12 13 14 15 16 17 18 19 20 21 22 23 24 25
-246 -4 4 0
-247 246 0
-248 -2 -20 0
-249 248 247 0
-250 12 0
-250 15 0
-251 16 18 0
-252 251 0
-252 250 0
-253 252 249 0
-254 -25 -10 0
-255 21 0
-255 15 0
-256 255 0
-256 254 0
-257 4 8 0
-258 -20 0
-258 -25 0
-259 258 257 0
-260 259 256 0
-261 260 253 0
-262 15 0
-262 5 0
-263 6 -18 0
-264 263 262 0
-265 -6 0
-265 -24 0
-266 -19 16 0
-267 266 265 0
-268 19 0
-268 -16 0
-269 6 24 0
-270 269 268 0
-271 270 0
-271 267 0
-272 271 264 0
-273 -9 0
-274 12 -16 0
-275 274 273 0
-276 -24 3 0
-277 -3 24 0
-278 277 0
-278 276 0
-279 -15 0
-279 -19 0
-280 279 0
-280 278 0
-281 280 275 0
-282 281 272 0
-283 282 261 0
-284 -21 0
-284 4 0
-285 -10 10 0
-286 285 0
-286 284 0
-287 10 0
-287 -10 0
-288 21 -4 0
-289 288 0
-289 287 0
-290 289 286 0
-291 -7 0
-291 5 0
-26 6 -21 0
-27 26 0
-27 291 0
-29 27 290 0
-30 7 -5 0
-31 -6 0
-31 21 0
-32 31 30 0
-28 287 288 0
-95 284 285 0
-33 95 0
-33 28 0
-34 33 32 0
-35 34 0
-35 29 0
-36 -13 0
-36 9 0
-37 -9 0
-37 13 0
-38 37 36 0
-39 -2 -22 0
-40 39 0
-40 38 0
-41 8 -22 0
-42 -20 0
-42 13 0
-43 42 41 0
-44 43 0
-44 40 0
-45 44 35 0
-46 14 1 0
-47 -14 0
-47 -12 0
-48 47 0
-48 46 0
-49 10 18 0
-50 18 22 0
-51 50 49 0
-52 51 0
-52 48 0
-53 14 25 0
-54 19 0
-54 2 0
-55 54 53 0
-56 -12 0
-56 -17 0
-57 17 0
-57 12 0
-58 57 56 0
-59 24 0
-59 19 0
-60 59 58 0
-61 60 55 0
-62 12 17 0
-63 -17 -12 0
-64 63 0
-64 62 0
-65 -24 -19 0
-66 65 0
-66 64 0
-67 -14 0
-67 -25 0
-68 -19 -2 0
-69 68 0
-69 67 0
-70 69 66 0
-71 70 0
-71 61 0
-72 71 0
-72 52 0
-73 72 45 0
-74 73 0
-74 283 0
-75 32 0
-75 33 0
-76 290 0
-76 27 0
-77 76 75 0
-78 13 -9 0
-79 9 -13 0
-80 79 0
-80 78 0
-81 2 0
-81 22 0
-82 81 80 0
-83 -8 0
-83 22 0
-84 20 -13 0
-85 84 0
-85 83 0
-86 85 82 0
-87 86 0
-87 77 0
-88 -14 0
-88 -1 0
-89 14 12 0
-90 89 88 0
-91 -10 0
-91 -18 0
-92 -18 0
-92 -22 0
-93 92 0
-93 91 0
-94 93 90 0
-96 66 0
-96 69 0
-97 55 0
-97 60 0
-98 97 96 0
-99 98 94 0
-100 99 0
-100 87 0
-101 4 0
-101 -4 0
-102 101 0
-103 2 0
-103 20 0
-104 103 0
-104 102 0
-105 -12 -15 0
-106 -16 0
-106 -18 0
-107 106 105 0
-108 107 0
-108 104 0
-109 25 0
-109 10 0
-110 -21 -15 0
-111 110 109 0
-112 -4 0
-112 -8 0
-113 20 25 0
-114 113 0
-114 112 0
-115 114 0
-115 111 0
-116 115 0
-116 108 0
-117 -15 -5 0
-118 -6 0
-118 18 0
-119 118 0
-119 117 0
-120 268 0
-120 269 0
-121 265 0
-121 266 0
-122 121 120 0
-123 122 0
-123 119 0
-124 9 0
-125 -12 0
-125 16 0
-126 125 0
-126 124 0
-127 24 0
-127 -3 0
-128 3 0
-128 -24 0
-129 128 127 0
-130 15 19 0
-131 130 129 0
-132 131 0
-132 126 0
-133 132 0
-133 123 0
-134 133 0
-134 116 0
-135 134 0
-135 100 0
-136 135 74 0
-137 -18 -1 0
-138 7 -13 0
-139 138 137 0
-140 2 12 0
-141 16 0
-141 -3 0
-142 141 140 0
-143 142 0
-143 139 0
-144 -5 0
-144 18 0
-145 -4 0
-145 -5 0
-146 145 0
-146 144 0
-147 19 9 0
-148 21 0
-148 -3 0
-149 148 147 0
-150 149 146 0
-151 150 0
-151 143 0
-152 -17 0
-152 17 0
-153 -12 -9 0
-154 153 152 0
-155 12 0
-155 9 0
-156 17 -17 0
-157 156 155 0
-158 157 0
-158 154 0
-159 15 0
-159 -8 0
-160 -2 -14 0
-161 160 0
-161 159 0
-162 161 0
-162 158 0
-163 -15 8 0
-164 2 0
-164 14 0
-165 164 163 0
-166 155 0
-166 156 0
-167 152 0
-167 153 0
-168 167 166 0
-169 168 0
-169 165 0
-170 169 162 0
-171 25 12 0
-172 -25 0
-172 4 0
-173 172 171 0
-174 4 20 0
-175 -3 0
-175 6 0
-176 175 174 0
-177 176 0
-177 173 0
-178 177 0
-178 170 0
-179 -25 0
-179 -12 0
-180 25 -4 0
-181 180 0
-181 179 0
-182 -4 0
-182 -20 0
-183 3 -6 0
-184 183 0
-184 182 0
-185 184 181 0
-186 165 168 0
-187 158 161 0
-188 187 0
-188 186 0
-189 188 0
-189 185 0
-190 189 178 0
-191 190 0
-191 151 0
-192 -8 -5 0
-193 15 -13 0
-194 13 -15 0
-195 194 0
-195 193 0
-196 195 192 0
-197 16 0
-197 -25 0
-198 25 0
-198 -16 0
-199 198 197 0
-200 -18 0
-200 -8 0
-201 8 0
-201 18 0
-202 201 200 0
-203 202 199 0
-204 203 196 0
-205 25 0
-205 8 0
-206 -16 2 0
-207 206 205 0
-208 16 0
-208 -2 0
-209 -25 -8 0
-210 209 208 0
-211 210 0
-211 207 0
-212 -11 0
-212 6 0
-213 -11 0
-213 20 0
-214 213 212 0
-215 214 0
-215 211 0
-216 215 204 0
-217 -21 0
-217 -1 0
-218 -7 0
-218 1 0
-219 218 217 0
-220 5 12 0
-221 3 17 0
-222 221 220 0
-223 222 0
-223 219 0
-224 -1 9 0
-225 3 8 0
-226 225 224 0
-227 -3 0
-227 -8 0
-228 1 0
-228 -9 0
-229 228 227 0
-230 229 0
-230 226 0
-231 -23 0
-231 -17 0
-232 17 0
-232 23 0
-233 232 231 0
-234 3 23 0
-235 234 0
-235 233 0
-236 -3 0
-236 -23 0
-237 23 17 0
-238 -17 -23 0
-239 238 0
-239 237 0
-240 239 0
-240 236 0
-241 240 235 0
-242 241 0
-242 230 0
-243 242 223 0
-244 243 216 0
-245 244 191 0
245 136 0
-30 -291 0
-26 -31 0
-31 -26 0
-32 -27 0
-287 -285 0
-285 -287 0
-288 -284 0
-33 -290 0
-290 -33 0
-35 -77 0
-77 -35 0
-80 -38 0
-39 -81 0
-81 -39 0
-82 -40 0
-40 -82 0
-41 -83 0
-83 -41 0
-42 -84 0
-84 -42 0
-85 -43 0
-43 -85 0
-44 -86 0
-86 -44 0
-87 -45 0
-45 -87 0
-88 -46 0
-46 -88 0
-89 -47 0
-47 -89 0
-48 -90 0
-90 -48 0
-91 -49 0
-50 -92 0
-92 -50 0
-93 -51 0
-94 -52 0
-64 -58 0
-59 -65 0
-65 -59 0
-66 -60 0
-67 -53 0
-53 -67 0
-68 -54 0
-54 -68 0
-55 -69 0
-71 -98 0
-98 -71 0
-99 -72 0
-72 -99 0
-73 -100 0
-247 -102 0
-248 -103 0
-249 -104 0
-250 -105 0
-105 -250 0
-251 -106 0
-106 -251 0
-107 -252 0
-252 -107 0
-253 -108 0
-109 -254 0
-254 -109 0
-110 -255 0
-255 -110 0
-256 -111 0
-111 -256 0
-257 -112 0
-112 -257 0
-258 -113 0
-113 -258 0
-114 -259 0
-115 -260 0
-260 -115 0
-261 -116 0
-116 -261 0
-262 -117 0
-263 -118 0
-264 -119 0
-119 -264 0
-268 -266 0
-269 -265 0
-265 -269 0
-271 -122 0
-122 -271 0
-123 -272 0
-272 -123 0
-124 -273 0
-125 -274 0
-126 -275 0
-275 -126 0
-278 -129 0
-130 -279 0
-279 -130 0
-280 -131 0
-281 -132 0
-282 -133 0
-133 -282 0
-134 -283 0
-171 -179 0
-180 -172 0
-172 -180 0
-173 -181 0
-174 -182 0
-182 -174 0
-175 -183 0
-183 -175 0
-184 -176 0
-176 -184 0
-177 -185 0
-163 -159 0
-159 -163 0
-160 -164 0
-161 -165 0
-155 -153 0
-152 -156 0
-158 -168 0
-168 -158 0
-188 -170 0
-208 -206 0
-205 -209 0
-225 -227 0
-227 -225 0
-224 -228 0
-234 -236 0
-239 -233 0
