projected/problems_b25_r0_d7_m100_s666/b25_d7_r0_s666_030.smt2
(set-logic QF_UF)
(declare-fun A0 () Bool)
(declare-fun A1 () Bool)
(declare-fun A2 () Bool)
(declare-fun A3 () Bool)
(declare-fun A4 () Bool)
(declare-fun A5 () Bool)
(declare-fun A6 () Bool)
(declare-fun A7 () Bool)
(declare-fun A8 () Bool)
(declare-fun A9 () Bool)
(declare-fun A10 () Bool)
(declare-fun A11 () Bool)
(declare-fun A12 () Bool)
(declare-fun A13 () Bool)
(declare-fun A14 () Bool)
(declare-fun A15 () Bool)
(declare-fun A16 () Bool)
(declare-fun A17 () Bool)
(declare-fun A18 () Bool)
(declare-fun A19 () Bool)
(declare-fun A20 () Bool)
(declare-fun A21 () Bool)
(declare-fun A22 () Bool)
(declare-fun A23 () Bool)
(declare-fun A24 () Bool)
(assert (let ((.def_0 (not A4))) (let ((.def_1 (or A6 .def_0))) (let ((.def_2 (not A20))) (let ((.def_3 (or A5 .def_2))) (let ((.def_4 (not .def_3))) (let ((.def_5 (or .def_4 .def_1))) (let ((.def_6 (not A9))) (let ((.def_7 (and A9 .def_6))) (let ((.def_8 (not .def_7))) (let ((.def_9 (not A3))) (let ((.def_10 (or A20 .def_9))) (let ((.def_11 (= .def_10 .def_8))) (let ((.def_12 (not .def_11))) (let ((.def_13 (= .def_12 .def_5))) (let ((.def_14 (not .def_13))) (let ((.def_15 (not A12))) (let ((.def_16 (not A8))) (let ((.def_17 (= .def_16 .def_15))) (let ((.def_18 (not A21))) (let ((.def_19 (not A1))) (let ((.def_20 (or .def_19 .def_18))) (let ((.def_21 (not .def_20))) (let ((.def_22 (or .def_21 .def_17))) (let ((.def_23 (not .def_22))) (let ((.def_24 (or A7 .def_18))) (let ((.def_25 (not .def_24))) (let ((.def_26 (not A19))) (let ((.def_27 (and .def_26 A12))) (let ((.def_28 (not .def_27))) (let ((.def_29 (and .def_28 .def_25))) (let ((.def_30 (not .def_29))) (let ((.def_31 (and .def_30 .def_23))) (let ((.def_32 (not .def_31))) (let ((.def_33 (and .def_32 .def_14))) (let ((.def_34 (not .def_33))) (let ((.def_35 (not A0))) (let ((.def_36 (not A13))) (let ((.def_37 (and .def_36 .def_35))) (let ((.def_38 (not .def_37))) (let ((.def_39 (or A13 A11))) (let ((.def_40 (not .def_39))) (let ((.def_41 (and .def_40 .def_38))) (let ((.def_42 (not .def_41))) (let ((.def_43 (not A17))) (let ((.def_44 (and .def_6 .def_43))) (let ((.def_45 (or A17 A21))) (let ((.def_46 (not .def_45))) (let ((.def_47 (and .def_46 .def_44))) (let ((.def_48 (or .def_47 .def_42))) (let ((.def_49 (not A11))) (let ((.def_50 (= A16 .def_49))) (let ((.def_51 (and A23 A18))) (let ((.def_52 (not .def_51))) (let ((.def_53 (and .def_52 .def_50))) (let ((.def_54 (not A24))) (let ((.def_55 (and .def_36 .def_54))) (let ((.def_56 (not .def_55))) (let ((.def_57 (not A18))) (let ((.def_58 (or .def_57 .def_19))) (let ((.def_59 (not .def_58))) (let ((.def_60 (or .def_59 .def_56))) (let ((.def_61 (= .def_60 .def_53))) (let ((.def_62 (not .def_61))) (let ((.def_63 (or .def_62 .def_48))) (let ((.def_64 (not .def_63))) (let ((.def_65 (or .def_64 .def_34))) (let ((.def_66 (= A3 A3))) (let ((.def_67 (or .def_19 .def_26))) (let ((.def_68 (or .def_67 .def_66))) (let ((.def_69 (and A11 A14))) (let ((.def_70 (not .def_69))) (let ((.def_71 (or A15 A17))) (let ((.def_72 (not .def_71))) (let ((.def_73 (or .def_72 .def_70))) (let ((.def_74 (not .def_73))) (let ((.def_75 (or .def_74 .def_68))) (let ((.def_76 (and A24 A9))) (let ((.def_77 (not .def_76))) (let ((.def_78 (not A14))) (let ((.def_79 (or .def_2 .def_78))) (let ((.def_80 (not .def_79))) (let ((.def_81 (and .def_80 .def_77))) (let ((.def_82 (not .def_81))) (let ((.def_83 (or A3 A7))) (let ((.def_84 (not .def_83))) (let ((.def_85 (and .def_26 .def_54))) (let ((.def_86 (not .def_85))) (let ((.def_87 (and .def_86 .def_84))) (let ((.def_88 (and .def_87 .def_82))) (let ((.def_89 (not .def_88))) (let ((.def_90 (or .def_89 .def_75))) (let ((.def_91 (not .def_90))) (let ((.def_92 (and A14 A4))) (let ((.def_93 (or A5 .def_43))) (let ((.def_94 (or .def_93 .def_92))) (let ((.def_95 (not .def_94))) (let ((.def_96 (not A15))) (let ((.def_97 (and A18 .def_96))) (let ((.def_98 (or A5 A23))) (let ((.def_99 (not .def_98))) (let ((.def_100 (= .def_99 .def_97))) (let ((.def_101 (not .def_100))) (let ((.def_102 (and .def_101 .def_95))) (let ((.def_103 (not .def_102))) (let ((.def_104 (or A8 A8))) (let ((.def_105 (and .def_49 A15))) (let ((.def_106 (and .def_105 .def_104))) (let ((.def_107 (not .def_106))) (let ((.def_108 (= A2 A23))) (let ((.def_109 (or A14 A18))) (let ((.def_110 (not .def_109))) (let ((.def_111 (and .def_110 .def_108))) (let ((.def_112 (or .def_111 .def_107))) (let ((.def_113 (or .def_112 .def_103))) (let ((.def_114 (not .def_113))) (let ((.def_115 (and .def_114 .def_91))) (let ((.def_116 (= .def_115 .def_65))) (let ((.def_117 (and A17 A0))) (let ((.def_118 (or A6 .def_15))) (let ((.def_119 (not .def_118))) (let ((.def_120 (and .def_119 .def_117))) (let ((.def_121 (not .def_120))) (let ((.def_122 (or A1 A11))) (let ((.def_123 (not A2))) (let ((.def_124 (and A15 .def_123))) (let ((.def_125 (or .def_124 .def_122))) (let ((.def_126 (and .def_125 .def_121))) (let ((.def_127 (and .def_0 A17))) (let ((.def_128 (not .def_127))) (let ((.def_129 (or A3 A4))) (let ((.def_130 (or .def_129 .def_128))) (let ((.def_131 (and .def_57 .def_16))) (let ((.def_132 (and A20 .def_123))) (let ((.def_133 (not .def_132))) (let ((.def_134 (and .def_133 .def_131))) (let ((.def_135 (and .def_134 .def_130))) (let ((.def_136 (not .def_135))) (let ((.def_137 (and .def_136 .def_126))) (let ((.def_138 (not .def_137))) (let ((.def_139 (or A24 A11))) (let ((.def_140 (or A24 .def_9))) (let ((.def_141 (not .def_140))) (let ((.def_142 (or .def_141 .def_139))) (let ((.def_143 (or A3 A19))) (let ((.def_144 (not .def_143))) (let ((.def_145 (and .def_123 A5))) (let ((.def_146 (not .def_145))) (let ((.def_147 (and .def_146 .def_144))) (let ((.def_148 (not .def_147))) (let ((.def_149 (and .def_148 .def_142))) (let ((.def_150 (or .def_78 A7))) (let ((.def_151 (not .def_150))) (let ((.def_152 (or .def_19 .def_36))) (let ((.def_153 (and .def_152 .def_151))) (let ((.def_154 (and A11 A8))) (let ((.def_155 (not A16))) (let ((.def_156 (and .def_155 A16))) (let ((.def_157 (= .def_156 .def_154))) (let ((.def_158 (not .def_157))) (let ((.def_159 (= .def_158 .def_153))) (let ((.def_160 (= .def_159 .def_149))) (let ((.def_161 (or .def_160 .def_138))) (let ((.def_162 (not .def_161))) (let ((.def_163 (not A7))) (let ((.def_164 (or .def_163 .def_0))) (let ((.def_165 (= .def_15 .def_78))) (let ((.def_166 (or .def_165 .def_164))) (let ((.def_167 (= A24 A15))) (let ((.def_168 (not .def_167))) (let ((.def_169 (= A7 .def_43))) (let ((.def_170 (not .def_169))) (let ((.def_171 (or .def_170 .def_168))) (let ((.def_172 (or .def_171 .def_166))) (let ((.def_173 (and A15 .def_19))) (let ((.def_174 (and A24 A7))) (let ((.def_175 (= .def_174 .def_173))) (let ((.def_176 (not A5))) (let ((.def_177 (or A10 .def_176))) (let ((.def_178 (not A10))) (let ((.def_179 (and .def_178 A19))) (let ((.def_180 (not .def_179))) (let ((.def_181 (and .def_180 .def_177))) (let ((.def_182 (not .def_181))) (let ((.def_183 (and .def_182 .def_175))) (let ((.def_184 (or .def_183 .def_172))) (let ((.def_185 (and .def_2 .def_35))) (let ((.def_186 (not .def_185))) (let ((.def_187 (not A6))) (let ((.def_188 (and .def_187 A0))) (let ((.def_189 (not .def_188))) (let ((.def_190 (and .def_189 .def_186))) (let ((.def_191 (and .def_0 .def_49))) (let ((.def_192 (and .def_123 .def_155))) (let ((.def_193 (and .def_192 .def_191))) (let ((.def_194 (or .def_193 .def_190))) (let ((.def_195 (not .def_194))) (let ((.def_196 (or A2 A7))) (let ((.def_197 (not .def_196))) (let ((.def_198 (or .def_35 A8))) (let ((.def_199 (= .def_198 .def_197))) (let ((.def_200 (not .def_199))) (let ((.def_201 (or A2 A22))) (let ((.def_202 (not A22))) (let ((.def_203 (= A16 .def_202))) (let ((.def_204 (= .def_203 .def_201))) (let ((.def_205 (or .def_204 .def_200))) (let ((.def_206 (not .def_205))) (let ((.def_207 (or .def_206 .def_195))) (let ((.def_208 (or .def_207 .def_184))) (let ((.def_209 (or .def_208 .def_162))) (let ((.def_210 (not .def_209))) (let ((.def_211 (and .def_210 .def_116))) (let ((.def_212 (not .def_211))) .def_212))))))))))))))))))))))))))))))))))))))))))))))))))))))))))))))))))))))))))))))))))))))))))))))))))))))))))))))))))))))))))))))))))))))))))))))))))))))))))))))))))))))))))))))))))))))))))))))))))))))))))))))))))))))
(check-sat)
